c Random generated cnf formula, satisfiable: false
p cnf 10 50
9 -10 -3 0
9 7 -6 0
6 -4 -5 0
-10 7 -5 0
-8 9 5 0
6 1 7 0
-10 8 4 0
-1 5 4 0
-2 -3 -7 0
-4 -7 10 0
4 -2 -7 0
10 -1 -8 0
1 4 3 0
6 4 7 0
8 1 -3 0
2 -3 7 0
9 10 -3 0
-10 -6 -8 0
6 -4 7 0
10 -6 2 0
-1 -4 5 0
-9 10 2 0
-8 -3 6 0
-10 -9 3 0
8 -5 -10 0
10 -2 -6 0
10 -5 2 0
-9 -6 4 0
6 3 -10 0
4 -5 10 0
6 2 -4 0
-4 -8 7 0
1 -8 -10 0
7 -10 -2 0
1 8 -10 0
-5 6 4 0
-6 -9 7 0
2 10 3 0
4 2 -7 0
2 9 -4 0
8 -2 -6 0
1 2 5 0
-5 -10 -6 0
6 -8 7 0
-2 7 -3 0
9 4 -1 0
-1 2 -8 0
-3 5 -4 0
-7 8 -1 0
-4 8 1 0
